14
0 65 51 41 33 48 87 44 32 48 58 93 41 92
65 0 11 42 91 30 48 21 70 40 74 47 36 66
51 11 0 55 43 79 75 55 63 59 65 66 68 57
41 42 55 0 44 66 50 64 87 42 72 60 11 35
33 91 43 44 0 65 36 29 45 67 37 41 35 52
48 30 79 66 65 0 73 46 74 65 16 23 35 48
87 48 75 50 36 73 0 64 74 43 28 13 98 41
44 21 55 64 29 46 64 0 45 17 71 47 68 63
32 70 63 87 45 74 74 45 0 48 72 63 60 40
48 40 59 42 67 65 43 17 48 0 60 74 33 72
58 74 65 72 37 16 28 71 72 60 0 69 90 54
93 47 66 60 41 23 13 47 63 74 69 0 62 50
41 36 68 11 35 35 98 68 60 33 90 62 0 69
92 66 57 35 52 48 41 63 40 72 54 50 69 0
